jobs  (incl. supersource/sink ):	102
RESOURCES
- renewable                 : 2 R
- nonrenewable              : 2 N
- doubly constrained        : 0 D
************************************************************************
PRECEDENCE RELATIONS:
jobnr.    #modes  #successors   successors
1	1	28		2 3 4 5 6 7 8 9 10 11 12 13 14 15 17 18 19 21 24 25 26 27 28 29 30 32 33 46 
2	3	14		98 71 70 68 63 61 56 47 43 42 39 36 31 16 
3	3	12		72 71 68 63 58 51 47 43 42 36 23 22 
4	3	16		101 100 99 97 62 60 59 55 54 51 49 48 44 39 38 37 
5	3	15		101 100 95 92 71 66 61 60 56 53 43 42 40 39 35 
6	3	12		98 71 70 68 63 58 52 44 43 42 36 22 
7	3	11		101 68 67 63 61 55 44 43 42 37 20 
8	3	9		100 95 69 61 44 41 35 31 20 
9	3	22		99 97 93 92 91 87 80 72 71 70 68 67 66 64 62 60 59 58 55 45 44 38 
10	3	13		98 94 93 90 78 76 72 68 63 60 54 49 22 
11	3	18		98 95 92 90 89 87 72 69 67 66 61 59 58 56 54 51 43 42 
12	3	16		101 100 96 95 94 91 84 70 69 68 66 60 58 56 54 35 
13	3	20		100 99 98 97 95 94 92 91 89 88 87 79 70 68 67 66 58 54 50 43 
14	3	19		99 98 96 95 93 92 90 84 70 67 66 64 62 61 58 56 55 54 44 
15	3	13		100 92 85 83 82 81 71 68 65 61 55 38 34 
16	3	17		101 97 96 95 92 90 87 78 72 67 66 64 60 58 55 54 44 
17	3	12		98 96 92 87 75 69 68 67 66 61 43 42 
18	3	18		100 98 97 96 94 92 88 87 84 82 77 67 66 64 59 58 55 54 
19	3	22		100 98 97 92 90 89 88 87 85 84 83 82 79 78 77 76 67 66 65 61 58 56 
20	3	19		99 98 94 93 92 91 88 87 86 84 79 78 73 64 62 60 59 58 54 
21	3	16		101 94 91 90 87 86 84 83 78 69 66 65 63 59 58 55 
22	3	19		100 99 97 96 95 92 88 87 85 84 82 81 79 75 73 67 64 62 61 
23	3	17		100 99 98 94 93 90 89 87 84 83 79 78 73 64 61 60 59 
24	3	11		91 90 87 83 79 78 67 66 64 58 43 
25	3	15		100 98 95 93 90 88 86 82 81 77 76 75 66 64 54 
26	3	16		101 97 95 92 90 89 85 83 81 80 78 76 73 64 62 60 
27	3	13		97 93 88 87 86 84 80 78 73 65 62 59 55 
28	3	10		93 89 85 84 80 78 64 60 58 44 
29	3	15		99 95 94 91 89 87 85 84 83 79 68 67 66 65 64 
30	3	12		94 92 90 87 85 83 81 76 66 65 61 60 
31	3	13		97 96 94 85 84 83 82 81 80 78 77 73 55 
32	3	13		97 96 95 93 90 85 80 79 76 73 70 60 57 
33	3	12		100 99 96 95 93 87 84 81 78 77 65 55 
34	3	14		99 96 95 87 86 84 80 79 78 77 76 75 73 64 
35	3	11		98 97 90 89 88 85 81 79 67 65 59 
36	3	7		100 82 77 66 64 59 54 
37	3	14		95 93 91 90 88 85 84 83 82 79 78 76 75 73 
38	3	12		98 96 95 94 89 79 78 76 75 74 73 69 
39	3	11		96 91 88 87 84 82 80 78 74 73 58 
40	3	10		99 96 88 87 79 77 76 74 68 58 
41	3	10		93 88 86 84 83 81 78 75 74 73 
42	3	9		97 94 88 83 79 78 73 65 64 
43	3	9		93 84 82 81 80 77 76 74 73 
44	3	9		88 86 82 81 77 76 75 74 73 
45	3	9		96 88 85 83 82 78 77 74 73 
46	3	8		94 92 90 87 80 78 77 76 
47	3	7		85 83 77 76 75 74 67 
48	3	6		92 80 78 76 73 64 
49	3	4		89 74 66 58 
50	3	5		84 78 73 65 64 
51	3	5		83 77 76 75 73 
52	3	5		100 94 87 79 73 
53	3	5		93 89 84 74 73 
54	3	4		85 83 80 65 
55	3	4		89 79 76 75 
56	3	3		81 75 73 
57	3	3		92 82 75 
58	3	2		81 75 
59	3	2		76 75 
60	3	2		82 75 
61	3	2		91 80 
62	3	2		77 74 
63	3	2		99 73 
64	3	1		74 
65	3	1		74 
66	3	1		73 
67	3	1		86 
68	3	1		73 
69	3	1		77 
70	3	1		78 
71	3	1		90 
72	3	1		79 
73	3	1		102 
74	3	1		102 
75	3	1		102 
76	3	1		102 
77	3	1		102 
78	3	1		102 
79	3	1		102 
80	3	1		102 
81	3	1		102 
82	3	1		102 
83	3	1		102 
84	3	1		102 
85	3	1		102 
86	3	1		102 
87	3	1		102 
88	3	1		102 
89	3	1		102 
90	3	1		102 
91	3	1		102 
92	3	1		102 
93	3	1		102 
94	3	1		102 
95	3	1		102 
96	3	1		102 
97	3	1		102 
98	3	1		102 
99	3	1		102 
100	3	1		102 
101	3	1		102 
102	1	0		
************************************************************************
REQUESTS/DURATIONS
jobnr.	mode	dur	R1	R2	N1	N2	
------------------------------------------------------------------------
1	1	0	0	0	0	0	
2	1	5	0	7	7	4	
	2	9	5	0	6	4	
	3	10	0	7	6	3	
3	1	6	9	0	8	8	
	2	7	0	6	8	8	
	3	7	3	0	6	8	
4	1	2	0	5	9	6	
	2	6	3	0	7	4	
	3	10	0	4	5	2	
5	1	1	6	0	5	4	
	2	6	0	4	4	3	
	3	7	0	4	4	2	
6	1	1	0	9	9	1	
	2	2	0	9	6	1	
	3	9	3	0	2	1	
7	1	2	0	2	8	6	
	2	3	0	2	8	5	
	3	4	0	2	7	5	
8	1	1	0	9	10	7	
	2	6	8	0	8	6	
	3	10	8	0	6	6	
9	1	1	0	7	5	6	
	2	3	0	6	5	5	
	3	5	0	6	3	3	
10	1	2	9	0	5	8	
	2	3	6	0	4	8	
	3	4	0	8	2	8	
11	1	5	0	8	6	7	
	2	9	0	6	5	6	
	3	10	0	6	4	5	
12	1	2	7	0	5	7	
	2	3	5	0	3	6	
	3	6	3	0	3	4	
13	1	3	0	2	8	6	
	2	4	7	0	6	5	
	3	5	0	1	5	2	
14	1	4	0	4	8	8	
	2	5	5	0	8	6	
	3	5	0	2	7	6	
15	1	1	7	0	6	7	
	2	2	0	4	5	7	
	3	6	0	2	5	7	
16	1	1	0	5	9	6	
	2	2	0	4	9	3	
	3	4	0	3	9	2	
17	1	1	8	0	4	7	
	2	5	0	4	3	7	
	3	9	0	4	2	7	
18	1	2	8	0	4	7	
	2	5	0	5	3	4	
	3	6	5	0	3	3	
19	1	2	7	0	6	7	
	2	2	0	1	4	5	
	3	3	5	0	3	3	
20	1	8	0	6	4	7	
	2	8	8	0	4	5	
	3	9	6	0	4	4	
21	1	5	0	3	5	8	
	2	6	0	2	3	8	
	3	9	0	2	2	7	
22	1	2	0	2	6	7	
	2	2	7	0	3	5	
	3	5	0	2	2	5	
23	1	3	3	0	6	9	
	2	6	0	2	4	10	
	3	7	0	2	4	9	
24	1	4	5	0	6	4	
	2	6	5	0	2	3	
	3	8	0	1	1	2	
25	1	4	0	7	6	6	
	2	7	3	0	2	6	
	3	8	0	6	1	6	
26	1	5	0	3	6	7	
	2	7	6	0	6	5	
	3	9	0	2	5	2	
27	1	4	0	6	8	6	
	2	9	0	6	7	6	
	3	10	0	6	5	6	
28	1	1	0	1	5	6	
	2	2	0	1	5	5	
	3	10	3	0	5	5	
29	1	4	3	0	10	7	
	2	6	3	0	8	6	
	3	9	0	2	5	5	
30	1	1	5	0	7	9	
	2	3	5	0	6	9	
	3	9	0	8	4	9	
31	1	2	0	8	8	9	
	2	6	0	6	7	8	
	3	8	0	6	7	7	
32	1	4	9	0	2	7	
	2	7	9	0	2	6	
	3	10	8	0	2	4	
33	1	1	0	9	7	8	
	2	9	2	0	3	7	
	3	10	1	0	2	7	
34	1	2	6	0	1	7	
	2	4	0	8	1	6	
	3	5	0	8	1	5	
35	1	5	6	0	5	9	
	2	5	0	5	4	8	
	3	6	0	4	3	8	
36	1	4	10	0	8	9	
	2	5	6	0	7	8	
	3	10	3	0	7	8	
37	1	1	0	5	8	1	
	2	5	6	0	5	1	
	3	6	4	0	3	1	
38	1	1	0	7	5	2	
	2	4	0	6	3	1	
	3	5	8	0	2	1	
39	1	1	9	0	10	5	
	2	5	0	5	8	5	
	3	8	0	2	8	5	
40	1	3	0	3	5	4	
	2	10	6	0	3	3	
	3	10	0	2	2	2	
41	1	8	1	0	6	3	
	2	9	0	8	6	2	
	3	10	0	6	4	2	
42	1	1	0	3	8	3	
	2	5	4	0	7	2	
	3	8	3	0	7	2	
43	1	2	0	7	10	8	
	2	9	6	0	10	6	
	3	10	0	5	10	5	
44	1	6	2	0	3	10	
	2	7	0	10	3	6	
	3	7	1	0	3	4	
45	1	1	0	7	2	8	
	2	8	0	6	1	7	
	3	10	0	5	1	5	
46	1	5	0	5	1	5	
	2	9	6	0	1	3	
	3	10	5	0	1	3	
47	1	2	9	0	7	10	
	2	4	7	0	6	9	
	3	8	0	7	6	9	
48	1	4	6	0	5	6	
	2	6	0	4	3	6	
	3	10	5	0	2	6	
49	1	2	5	0	6	6	
	2	6	0	7	6	4	
	3	10	0	7	6	3	
50	1	1	7	0	7	6	
	2	2	6	0	7	5	
	3	10	0	2	7	5	
51	1	5	5	0	4	10	
	2	7	3	0	4	10	
	3	10	0	3	4	10	
52	1	5	0	7	9	9	
	2	6	4	0	7	6	
	3	6	0	3	7	5	
53	1	6	0	4	5	7	
	2	8	0	2	5	6	
	3	10	4	0	4	5	
54	1	2	0	7	8	4	
	2	2	2	0	7	3	
	3	4	0	5	2	3	
55	1	3	0	7	10	9	
	2	5	0	5	8	7	
	3	10	5	0	5	3	
56	1	1	0	6	4	7	
	2	2	5	0	4	5	
	3	10	3	0	4	4	
57	1	1	0	9	2	7	
	2	2	0	7	1	7	
	3	10	5	0	1	4	
58	1	2	0	8	7	9	
	2	5	3	0	5	4	
	3	8	0	3	4	4	
59	1	2	0	8	8	5	
	2	5	0	7	7	4	
	3	6	0	6	4	4	
60	1	1	0	6	9	2	
	2	7	5	0	8	2	
	3	10	0	5	8	1	
61	1	2	7	0	5	3	
	2	3	5	0	5	3	
	3	10	5	0	2	3	
62	1	1	4	0	6	10	
	2	1	0	8	3	7	
	3	2	0	5	2	7	
63	1	4	0	9	6	6	
	2	5	3	0	6	5	
	3	9	3	0	5	3	
64	1	1	4	0	8	8	
	2	6	0	3	6	7	
	3	8	3	0	4	6	
65	1	2	0	9	5	3	
	2	5	2	0	4	3	
	3	6	2	0	4	2	
66	1	4	0	9	9	8	
	2	8	3	0	7	7	
	3	9	2	0	6	5	
67	1	1	0	7	4	9	
	2	6	4	0	4	6	
	3	9	0	6	4	4	
68	1	1	0	3	6	9	
	2	9	0	3	6	6	
	3	10	0	3	6	5	
69	1	6	5	0	6	5	
	2	7	0	9	5	4	
	3	10	1	0	4	1	
70	1	4	4	0	7	2	
	2	5	0	8	6	2	
	3	10	1	0	6	1	
71	1	1	10	0	7	9	
	2	4	8	0	6	9	
	3	5	8	0	5	7	
72	1	5	0	7	8	6	
	2	7	0	7	8	5	
	3	7	2	0	8	2	
73	1	1	0	5	5	7	
	2	8	0	4	5	5	
	3	8	1	0	5	4	
74	1	1	9	0	4	6	
	2	9	0	6	3	6	
	3	10	0	6	3	5	
75	1	2	0	8	2	8	
	2	5	0	5	1	4	
	3	7	0	3	1	3	
76	1	1	3	0	2	6	
	2	3	3	0	2	4	
	3	9	0	2	2	3	
77	1	5	0	4	5	5	
	2	9	0	3	5	5	
	3	9	4	0	5	5	
78	1	4	0	7	9	7	
	2	6	6	0	6	6	
	3	10	0	7	4	4	
79	1	4	0	5	8	7	
	2	6	6	0	7	6	
	3	7	0	4	7	3	
80	1	4	0	8	3	5	
	2	5	0	5	3	5	
	3	9	0	4	3	5	
81	1	2	4	0	9	9	
	2	8	0	6	6	8	
	3	10	4	0	6	7	
82	1	1	6	0	7	8	
	2	2	3	0	7	7	
	3	9	2	0	7	7	
83	1	2	0	8	8	7	
	2	4	3	0	5	5	
	3	4	0	6	2	4	
84	1	1	6	0	9	3	
	2	5	0	9	8	3	
	3	7	0	8	8	2	
85	1	1	8	0	5	8	
	2	6	5	0	4	7	
	3	7	0	3	4	6	
86	1	2	7	0	2	5	
	2	3	0	8	1	5	
	3	10	0	8	1	4	
87	1	3	0	8	3	7	
	2	4	0	8	2	6	
	3	6	0	8	1	1	
88	1	1	3	0	3	8	
	2	5	2	0	3	8	
	3	6	2	0	3	7	
89	1	4	0	3	4	9	
	2	7	3	0	4	7	
	3	10	3	0	4	6	
90	1	2	0	8	8	6	
	2	8	0	7	8	5	
	3	9	2	0	8	5	
91	1	2	0	3	4	5	
	2	8	5	0	3	4	
	3	10	4	0	2	3	
92	1	1	0	4	4	6	
	2	3	0	4	4	5	
	3	10	0	3	4	5	
93	1	5	9	0	8	9	
	2	5	0	3	6	8	
	3	9	0	3	5	8	
94	1	5	10	0	8	4	
	2	7	7	0	8	4	
	3	10	0	9	8	4	
95	1	3	0	9	9	6	
	2	4	0	8	8	3	
	3	5	0	7	7	3	
96	1	1	0	9	7	10	
	2	4	0	9	6	9	
	3	10	9	0	5	8	
97	1	2	6	0	5	7	
	2	4	4	0	3	3	
	3	7	4	0	1	2	
98	1	1	0	6	7	8	
	2	9	4	0	5	7	
	3	10	0	5	2	7	
99	1	1	3	0	6	7	
	2	2	2	0	5	6	
	3	3	2	0	3	6	
100	1	1	5	0	8	8	
	2	3	0	7	8	8	
	3	4	0	2	8	7	
101	1	2	10	0	4	9	
	2	4	9	0	2	8	
	3	8	0	3	2	8	
102	1	0	0	0	0	0	
************************************************************************

 RESOURCE AVAILABILITIES 
	R 1	R 2	N 1	N 2
	72	70	471	512

************************************************************************
